(set-logic QF_UF)
(declare-fun circuit () Bool)
(declare-fun grn () Bool)
(declare-fun org () Bool)
(declare-fun rd1 () Bool)
(declare-fun rd2 () Bool)
(assert (not (not rd1)))
(assert (not (not rd2)))
(assert (=> rd1 (not rd2)))
(check-sat)
(exit)
